NAME : u1060.opt.tour
COMMENT : Solution with NN for u1060.tsp (239070)
PARAMETERS : 
 - Temperature : 500.0
 - Cooling Rate : 0.95
 - Seed : 9694
TYPE : TOUR
DIMENSION : 1060
LENGTH : 239070
TOUR_SECTION
1
2
3
4
5
6
7
8
9
10
11
12
13
14
15
16
18
17
19
20
21
22
23
24
25
26
33
35
36
34
1044
1043
1042
1041
1040
1039
37
38
39
40
41
42
43
44
45
46
49
50
51
52
53
54
55
56
57
58
59
61
60
62
63
64
65
66
67
68
69
70
71
72
73
74
75
76
77
81
80
79
78
82
83
48
47
84
85
86
87
88
92
89
90
91
94
93
892
95
96
97
98
99
100
101
102
103
104
105
106
107
108
111
109
110
888
114
112
113
115
116
117
119
118
120
121
123
122
124
129
128
131
130
125
126
127
137
136
135
134
132
133
138
139
140
141
142
143
144
145
146
147
148
149
150
151
152
153
154
155
156
165
166
158
157
159
160
161
162
163
164
167
168
169
170
171
172
173
174
175
176
177
178
179
180
181
182
183
184
185
186
187
188
189
190
191
192
193
194
195
199
201
202
203
204
205
206
210
211
213
212
207
208
209
217
214
216
215
867
868
869
870
871
872
881
882
880
873
874
878
879
875
876
877
885
887
886
884
883
889
890
891
893
894
896
897
898
899
895
901
900
902
903
904
906
905
907
908
909
910
911
866
218
219
221
222
223
224
232
233
234
235
236
237
238
239
240
242
241
243
244
246
245
247
248
249
251
250
252
253
255
254
256
257
258
263
262
261
260
259
200
198
197
196
264
265
266
267
268
269
272
271
270
273
277
278
280
279
390
389
276
275
274
391
392
393
394
395
396
397
398
399
400
401
402
403
404
405
406
388
387
386
385
384
383
376
377
378
379
380
381
382
407
408
409
410
411
412
484
485
486
487
488
490
489
491
492
493
494
495
496
497
498
502
501
500
499
507
508
509
510
511
506
513
512
514
505
504
503
518
519
520
516
515
517
521
522
523
524
525
526
527
528
529
530
531
532
533
534
539
540
541
542
543
544
547
546
548
549
550
551
552
553
562
557
556
555
554
460
461
465
467
468
469
472
475
476
477
478
479
481
480
482
483
474
473
471
470
466
464
463
462
459
458
457
456
455
454
453
595
592
593
594
596
597
598
451
452
450
449
447
448
442
441
427
426
425
424
423
422
421
420
413
415
414
419
416
418
417
430
428
429
431
432
433
435
434
436
437
438
439
440
443
444
445
446
599
600
601
602
603
605
604
606
607
609
608
610
611
612
613
614
615
616
617
618
624
619
620
621
622
623
625
626
628
627
629
632
631
630
636
637
638
639
640
641
644
645
646
647
648
649
650
651
652
653
654
655
656
657
658
659
660
661
662
663
664
665
666
667
668
670
669
643
642
635
634
633
672
673
678
679
677
676
674
675
671
683
684
685
686
687
688
689
690
682
681
680
704
702
703
705
712
713
714
715
716
717
718
719
711
710
709
720
721
722
708
707
706
691
692
693
694
695
696
591
590
589
569
570
571
559
558
560
561
563
564
565
566
567
568
572
573
574
575
576
577
578
579
580
581
582
583
584
585
588
587
586
697
698
701
699
700
723
724
725
726
727
728
729
731
730
732
733
734
735
736
737
738
545
739
740
741
742
743
744
745
746
747
748
749
538
537
536
535
750
751
752
753
754
755
756
757
758
759
760
761
762
763
764
765
766
767
768
769
770
771
772
773
775
774
776
777
778
779
780
781
782
783
784
785
786
787
788
789
790
791
792
793
794
795
796
797
798
799
800
801
802
803
804
805
337
336
338
341
340
339
342
343
344
347
348
346
345
349
352
351
350
353
354
355
356
357
358
362
361
360
359
363
364
365
366
367
368
369
370
371
372
373
375
374
281
282
283
284
285
286
287
288
289
292
291
290
293
294
295
296
297
299
298
300
302
301
303
304
305
307
308
309
312
311
310
314
313
315
316
317
306
318
319
320
321
322
324
323
326
327
328
329
330
331
335
333
332
325
334
806
807
808
809
810
811
812
813
814
815
816
817
818
821
822
823
824
826
825
831
830
829
828
832
827
833
834
939
838
836
835
837
820
819
839
840
841
842
843
844
845
846
852
847
848
849
850
851
855
854
853
229
231
230
228
227
226
225
856
857
860
858
859
220
861
862
864
865
863
912
913
914
915
916
917
918
920
919
921
922
923
924
925
926
927
953
952
954
951
955
956
950
957
960
959
958
961
962
963
965
964
949
934
933
932
929
931
930
928
938
937
936
935
940
941
942
944
943
945
946
947
948
966
967
968
969
970
972
971
973
974
982
975
976
977
978
979
980
981
983
984
986
985
987
988
989
990
991
992
993
994
995
996
997
998
999
1000
1001
1002
1003
1004
1005
1006
1007
1008
1009
1010
1011
1012
1013
1014
1015
1016
1017
1018
1019
1020
1021
1022
1023
1024
1025
1026
1027
1028
1030
1029
1031
1032
1033
1034
1035
1036
1037
1038
1045
1046
1047
1048
1049
1050
1051
32
27
28
29
30
31
1053
1054
1052
1055
1056
1057
1058
1059
1060
-1
EOF